Nb of jobs, Nb of Machines, Time seed, Machine seed, Upper bound, Lower bound
5,5,-1,-1,-1,-1
Times
84,40,44,41,9
86,50,63,2,76
52,32,49,84,54
41,64,19,62,61
62,6,60,8,64
Machines
3,4,5,2,1
4,3,5,1,2
5,3,4,1,2
4,1,3,5,2
2,1,3,4,5
